94 95 92 98 100 44 38 14 43 15 57 2 58 
27 69 1 50 33 81 34 78 79 3 77 
31 70 30 51 9 35 71 65 66 20 32 90 63 10 
53 40 21 73 72 75 23 67 39 56 74 22 41 42 87 97 37 91 85 93 59 13 
28 76 12 80 68 29 24 54 55 25 4 26 
52 7 88 62 19 11 64 49 36 47 48 82 8 46 45 83 60 18 
89 5 84 17 86 16 61 99 96 6 
